WARNING: for repeatability, setting FPU to use double precision
============================[ Problem Statistics ]=============================
|                                                                             |
|  Number of variables:        154309                                         |
|  Number of clauses:         3230737                                         |
|  Parse time:                   0.68 s                                       |
|                                                                             |
============================[ Search Statistics ]==============================
| Conflicts |          ORIGINAL         |          LEARNT          | Progress |
|           |    Vars  Clauses Literals |    Limit  Clauses Lit/Cl |          |
===============================================================================
|       100 |  154305  3230707  9429189 |  1184592      100     44 |  0.003 % |
|       250 |  154305  3230707  9429189 |  1303051      250     53 |  0.003 % |
|       475 |  154305  3230707  9429189 |  1433357      475     42 |  0.003 % |
|       812 |  154305  3230707  9429189 |  1576692      812     41 |  0.003 % |
|      1318 |  154305  3230707  9429189 |  1734361     1318     42 |  0.003 % |
|      2077 |  154305  3230707  9429189 |  1907798     2077     41 |  0.003 % |
|      3216 |  154305  3230707  9429189 |  2098577     3216     51 |  0.003 % |
|      4924 |  154305  3230707  9429189 |  2308435     4924     48 |  0.003 % |
|      7486 |  154305  3230707  9429189 |  2539279     7486     50 |  0.003 % |
|     11330 |  154305  3230707  9429189 |  2793207    11330     50 |  0.003 % |
|     17096 |  154305  3230707  9429189 |  3072528    17096     54 |  0.003 % |
|     25745 |  154305  3230707  9429189 |  3379780    25745     57 |  0.003 % |
|     38719 |  154305  3230707  9429189 |  3717758    38719     61 |  0.003 % |
|     58180 |  154305  3230707  9429189 |  4089534    58180     65 |  0.003 % |
|     87372 |  154305  3230707  9429189 |  4498488    87372     71 |  0.003 % |
|    131161 |  154305  3230707  9429189 |  4948337   131161     75 |  0.003 % |
|    196845 |  154305  3230707  9429189 |  5443170   196845     83 |  0.003 % |
|    295371 |  154303  3230654  9429082 |  5987487   295369     92 |  0.004 % |
|    443160 |  154303  3230654  9429082 |  6586236   443158     97 |  0.004 % |
|    664843 |  154303  3230654  9429082 |  7244860   664841     99 |  0.004 % |
|    997368 |  154303  3230654  9429082 |  7969346   997366    103 |  0.004 % |
===============================================================================
restarts              : 2300
conflicts             : 1210815        (4053 /sec)
decisions             : 20945331       (0.00 % random) (70117 /sec)
propagations          : 1302407710     (4359962 /sec)
conflict literals     : 134214362      (57.15 % deleted)
Memory used           : 1091.00 MB
CPU time              : 298.72 s

INDETERMINATE
